3566.7
0 11 10 1 3 12 4 145 14 17 8 5 6 13 0
0 18 46 19 20 35 29 24 16 15 22 23 25 21 26 28 0
0 33 34 39 41 44 38 43 42 37 36 32 30 31 40 0
0 57 56 55 54 50 51 64 49 47 48 45 60 52 53 0
0 65 66 63 62 61 59 67 68 58 0
0 73 74 75 72 80 76 77 79 78 81 71 70 82 83 84 91 0
0 90 88 86 85 93 92 87 95 94 89 0
0 97 100 98 99 104 96 106 107 108 101 103 102 105 0
0 118 114 113 119 117 115 110 121 129 116 109 111 112 0
0 123 124 125 133 130 120 136 128 126 131 122 69 132 0
0 135 134 139 142 140 141 143 175 7 199 144 137 147 0
0 153 148 157 9 163 155 149 154 151 156 0
0 165 158 164 161 160 162 159 168 166 146 0
0 174 173 192 172 171 170 179 177 169 176 167 0
0 187 186 178 183 182 181 185 184 138 27 0
0 193 191 194 190 189 188 196 150 195 197 0
0 180 198 2 152 127 0
